0 390.0 50.0
1 380.0 50.0
2 370.0 50.0
3 360.0 50.0
4 350.0 50.0
5 340.0 50.0
6 330.0 50.0
7 320.0 50.0
8 310.0 50.0
9 300.0 50.0
10 290.0 50.0
11 280.0 50.0
12 270.0 50.0
13 260.0 50.0
14 250.0 50.0
15 240.0 50.0
16 230.0 50.0
17 220.0 50.0
18 210.0 50.0
19 200.0 50.0
20 190.0 50.0
21 180.0 50.0
22 170.0 50.0
23 160.0 50.0
24 150.0 50.0
25 140.0 50.0
26 130.0 50.0
27 120.0 50.0
28 110.0 50.0
29 100.0 50.0
30 90.0 50.0
31 80.0 50.0
32 70.0 50.0
33 50.0 50.0
34 50.0 50.0
35 40.0 50.0
36 30.0 50.0
37 23.33 50.0
38 16.67 50.0
39 10.0 50.0
40 10.0 56.67
41 10.0 63.33
42 10.0 70.0
43 16.67 70.0
44 23.33 70.0
45 30.0 70.0
46 40.0 70.0
47 50.0 70.0
48 60.0 70.0
49 70.0 70.0
50 80.0 70.0
51 90.0 70.0
52 100.0 70.0
53 110.0 70.0
54 120.0 70.0
55 130.0 70.0
56 140.0 70.0
57 150.0 70.0
58 160.0 70.0
59 170.0 70.0
60 180.0 70.0
61 190.0 70.0
62 200.0 70.0
63 210.0 70.0
64 220.0 70.0
65 230.0 70.0
66 240.0 70.0
67 250.0 70.0
68 260.0 70.0
69 270.0 70.0
70 280.0 70.0
71 290.0 70.0
72 300.0 70.0
73 310.0 70.0
74 320.0 70.0
75 330.0 70.0
76 340.0 70.0
77 350.0 70.0
78 360.0 70.0
79 370.0 70.0
80 380.0 70.0
81 390.0 70.0
82 400.0 70.0
83 410.0 70.0
84 416.67 70.0
85 423.33 70.0
86 430.0 70.0
87 430.0 63.33
88 430.0 56.67
89 430.0 50.0
90 430.0 40.0
91 430.0 30.0
92 430.0 23.33
93 430.0 16.67
94 430.0 10.0
95 423.33 10.0
96 416.67 10.0
97 410.0 10.0
98 400.0 10.0
99 390.0 10.0
100 380.0 10.0
101 370.0 10.0
102 360.0 10.0
103 350.0 10.0
104 340.0 10.0
105 330.0 10.0
106 320.0 10.0
107 310.0 10.0
108 300.0 10.0
109 290.0 10.0
110 280.0 10.0
111 270.0 10.0
112 260.0 10.0
113 250.0 10.0
114 240.0 10.0
115 230.0 10.0
116 220.0 10.0
117 210.0 10.0
118 200.0 10.0
119 190.0 10.0
120 180.0 10.0
121 170.0 10.0
122 160.0 10.0
123 150.0 10.0
124 140.0 10.0
125 130.0 10.0
126 120.0 10.0
127 110.0 10.0
128 103.33 10.0
129 96.67 10.0
130 90.0 10.0
131 90.0 16.67
132 90.0 23.33
133 90.0 30.0
134 96.67 30.0
135 103.33 30.0
136 110.0 30.0
137 120.0 30.0
138 130.0 30.0
139 140.0 30.0
140 150.0 30.0
141 160.0 30.0
142 170.0 30.0
143 180.0 30.0
144 190.0 30.0
145 200.0 30.0
146 210.0 30.0
147 220.0 30.0
148 230.0 30.0
149 240.0 30.0
150 250.0 30.0
151 260.0 30.0
152 270.0 30.0
153 280.0 30.0
154 290.0 30.0
155 300.0 30.0
156 310.0 30.0
157 320.0 30.0
158 330.0 30.0
159 340.0 30.0
160 350.0 30.0
161 360.0 30.0
162 370.0 30.0
163 380.0 30.0
164 390.0 30.0
165 396.67 30.0
166 403.33 30.0
167 410.0 30.0
168 410.0 36.67
169 410.0 43.33
170 410.0 50.0
171 403.33 50.0
0 396.67 50.0
